Nodi 48
0 1 7
0 2 5
0 3 5
0 4 6
0 5 6
0 6 5
0 7 6
0 8 3
0 9 9
0 10 5
0 11 3
0 12 6
0 13 6
0 14 5
0 15 3
0 16 6
0 17 4
0 18 5
0 19 8
0 20 5
0 21 6
0 22 7
0 23 4
0 24 6
0 25 7
0 26 8
0 27 8
0 28 4
0 29 7
0 30 4
0 31 7
0 32 5
0 33 8
0 34 6
0 35 7
0 36 7
0 37 6
0 38 8
0 39 5
0 40 8
0 41 4
0 42 7
0 43 6
0 44 4
0 45 7
0 46 6
0 47 6
1 2 5
1 3 5
1 4 6
1 5 2
1 6 3
1 7 6
1 8 7
1 9 8
1 10 6
1 11 5
1 12 3
1 13 8
1 14 8
1 15 7
1 16 5
1 17 5
1 18 5
1 19 4
1 20 6
1 21 5
1 22 4
1 23 5
1 24 5
1 25 6
1 26 6
1 27 6
1 28 4
1 29 5
1 30 5
1 31 7
1 32 7
1 33 8
1 34 7
1 35 5
1 36 3
1 37 4
1 38 5
1 39 8
1 40 8
1 41 7
1 42 5
1 43 5
1 44 3
1 45 7
1 46 6
1 47 5
2 3 6
2 4 7
2 5 7
2 6 4
2 7 8
2 8 7
2 9 10
2 10 7
2 11 2
2 12 7
2 13 4
2 14 6
2 15 6
2 16 5
2 17 8
2 18 4
2 19 5
2 20 7
2 21 7
2 22 7
2 23 4
2 24 6
2 25 7
2 26 7
2 27 7
2 28 6
2 29 6
2 30 7
2 31 5
2 32 7
2 33 6
2 34 6
2 35 8
2 36 2
2 37 7
2 38 4
2 39 7
2 40 9
2 41 7
2 42 7
2 43 6
2 44 6
2 45 6
2 46 9
2 47 7
3 4 6
3 5 6
3 6 5
3 7 7
3 8 4
3 9 9
3 10 2
3 11 4
3 12 2
3 13 3
3 14 4
3 15 4
3 16 3
3 17 4
3 18 5
3 19 4
3 20 5
3 21 6
3 22 7
3 23 7
3 24 4
3 25 6
3 26 8
3 27 7
3 28 6
3 29 6
3 30 6
3 31 4
3 32 6
3 33 5
3 34 5
3 35 7
3 36 7
3 37 5
3 38 6
3 39 6
3 40 3
3 41 9
3 42 4
3 43 8
3 44 5
3 45 7
3 46 5
3 47 8
4 5 4
4 6 7
4 7 5
4 8 5
4 9 10
4 10 5
4 11 8
4 12 7
4 13 4
4 14 5
4 15 3
4 16 7
4 17 5
4 18 6
4 19 5
4 20 5
4 21 5
4 22 6
4 23 5
4 24 5
4 25 7
4 26 6
4 27 9
4 28 6
4 29 5
4 30 2
4 31 2
4 32 6
4 33 5
4 34 3
4 35 4
4 36 6
4 37 6
4 38 4
4 39 2
4 40 8
4 41 6
4 42 5
4 43 7
4 44 7
4 45 6
4 46 4
4 47 6
5 6 5
5 7 4
5 8 5
5 9 7
5 10 6
5 11 6
5 12 5
5 13 6
5 14 7
5 15 7
5 16 3
5 17 3
5 18 4
5 19 2
5 20 5
5 21 7
5 22 5
5 23 4
5 24 3
5 25 7
5 26 5
5 27 7
5 28 2
5 29 7
5 30 5
5 31 5
5 32 5
5 33 7
5 34 6
5 35 7
5 36 5
5 37 2
5 38 6
5 39 6
5 40 9
5 41 6
5 42 6
5 43 3
5 44 5
5 45 5
5 46 4
5 47 3
6 7 5
6 8 5
6 9 8
6 10 6
6 11 2
6 12 4
6 13 7
6 14 6
6 15 8
6 16 2
6 17 6
6 18 4
6 19 5
6 20 4
6 21 6
6 22 3
6 23 3
6 24 6
6 25 6
6 26 3
6 27 3
6 28 5
6 29 2
6 30 5
6 31 7
6 32 4
6 33 5
6 34 5
6 35 5
6 36 5
6 37 4
6 38 5
6 39 6
6 40 8
6 41 6
6 42 4
6 43 5
6 44 4
6 45 7
6 46 6
6 47 6
7 8 6
7 9 7
7 10 5
7 11 7
7 12 6
7 13 4
7 14 5
7 15 7
7 16 5
7 17 6
7 18 5
7 19 6
7 20 4
7 21 6
7 22 2
7 23 4
7 24 6
7 25 5
7 26 6
7 27 6
7 28 2
7 29 6
7 30 3
7 31 3
7 32 7
7 33 6
7 34 2
7 35 6
7 36 7
7 37 6
7 38 5
7 39 5
7 40 7
7 41 5
7 42 5
7 43 4
7 44 6
7 45 3
7 46 5
7 47 4
8 9 9
8 10 2
8 11 6
8 12 6
8 13 3
8 14 4
8 15 4
8 16 4
8 17 5
8 18 4
8 19 7
8 20 2
8 21 5
8 22 7
8 23 6
8 24 4
8 25 5
8 26 5
8 27 7
8 28 7
8 29 7
8 30 6
8 31 5
8 32 7
8 33 5
8 34 4
8 35 4
8 36 6
8 37 3
8 38 6
8 39 3
8 40 6
8 41 7
8 42 6
8 43 5
8 44 5
8 45 6
8 46 5
8 47 5
9 10 7
9 11 8
9 12 7
9 13 9
9 14 9
9 15 9
9 16 7
9 17 7
9 18 6
9 19 5
9 20 7
9 21 7
9 22 9
9 23 7
9 24 5
9 25 8
9 26 5
9 27 10
9 28 9
9 29 9
9 30 9
9 31 8
9 32 5
9 33 7
9 34 7
9 35 7
9 36 8
9 37 9
9 38 6
9 39 9
9 40 11
9 41 7
9 42 9
9 43 7
9 44 5
9 45 8
9 46 8
9 47 10
10 11 6
10 12 4
10 13 5
10 14 2
10 15 2
10 16 4
10 17 3
10 18 6
10 19 6
10 20 4
10 21 7
10 22 6
10 23 5
10 24 6
10 25 7
10 26 7
10 27 5
10 28 7
10 29 7
10 30 7
10 31 5
10 32 5
10 33 7
10 34 3
10 35 6
10 36 5
10 37 5
10 38 7
10 39 5
10 40 5
10 41 9
10 42 6
10 43 7
10 44 6
10 45 8
10 46 6
10 47 6
11 12 5
11 13 6
11 14 4
11 15 6
11 16 4
11 17 7
11 18 2
11 19 7
11 20 5
11 21 7
11 22 5
11 23 3
11 24 7
11 25 5
11 26 5
11 27 5
11 28 5
11 29 4
11 30 7
11 31 7
11 32 6
11 33 7
11 34 5
11 35 6
11 36 4
11 37 6
11 38 6
11 39 6
11 40 7
11 41 5
11 42 6
11 43 5
11 44 5
11 45 8
11 46 8
11 47 6
12 13 5
12 14 6
12 15 6
12 16 5
12 17 2
12 18 7
12 19 6
12 20 4
12 21 4
12 22 5
12 23 6
12 24 2
12 25 7
12 26 7
12 27 7
12 28 6
12 29 4
12 30 5
12 31 5
12 32 4
12 33 5
12 34 4
12 35 5
12 36 5
12 37 7
12 38 4
12 39 7
12 40 5
12 41 8
12 42 2
12 43 7
12 44 4
12 45 6
12 46 5
12 47 6
13 14 5
13 15 6
13 16 6
13 17 7
13 18 5
13 19 7
13 20 4
13 21 5
13 22 6
13 23 4
13 24 6
13 25 3
13 26 5
13 27 10
13 28 6
13 29 5
13 30 3
13 31 6
13 32 5
13 33 2
13 34 2
13 35 4
13 36 6
13 37 6
13 38 7
13 39 5
13 40 6
13 41 9
13 42 3
13 43 6
13 44 6
13 45 7
13 46 5
13 47 6
14 15 2
14 16 4
14 17 5
14 18 6
14 19 6
14 20 5
14 21 6
14 22 7
14 23 5
14 24 6
14 25 8
14 26 9
14 27 7
14 28 6
14 29 7
14 30 5
14 31 3
14 32 7
14 33 6
14 34 3
14 35 7
14 36 7
14 37 6
14 38 5
14 39 3
14 40 7
14 41 7
14 42 7
14 43 7
14 44 6
14 45 6
14 46 7
14 47 4
15 16 6
15 17 5
15 18 8
15 19 8
15 20 6
15 21 8
15 22 8
15 23 7
15 24 8
15 25 9
15 26 9
15 27 6
15 28 5
15 29 6
15 30 5
15 31 5
15 32 7
15 33 8
15 34 5
15 35 7
15 36 7
15 37 7
15 38 7
15 39 5
15 40 7
15 41 7
15 42 8
15 43 9
15 44 7
15 45 8
15 46 6
15 47 6
16 17 6
16 18 4
16 19 3
16 20 2
16 21 4
16 22 5
16 23 4
16 24 4
16 25 5
16 26 5
16 27 5
16 28 3
16 29 4
16 30 6
16 31 5
16 32 6
16 33 6
16 34 4
16 35 4
16 36 6
16 37 2
16 38 6
16 39 7
16 40 6
16 41 8
16 42 3
16 43 5
16 44 2
16 45 5
16 46 4
16 47 5
17 18 5
17 19 5
17 20 5
17 21 6
17 22 7
17 23 7
17 24 4
17 25 8
17 26 8
17 27 8
17 28 5
17 29 6
17 30 5
17 31 3
17 32 2
17 33 5
17 34 6
17 35 7
17 36 7
17 37 5
17 38 5
17 39 5
17 40 7
17 41 8
17 42 4
17 43 6
17 44 6
17 45 7
17 46 3
17 47 6
18 19 5
18 20 3
18 21 6
18 22 5
18 23 2
18 24 5
18 25 3
18 26 3
18 27 7
18 28 4
18 29 5
18 30 8
18 31 6
18 32 7
18 33 7
18 34 3
18 35 5
18 36 2
18 37 6
18 38 4
18 39 5
18 40 7
18 41 7
18 42 7
18 43 4
18 44 4
18 45 6
18 46 8
18 47 5
19 20 5
19 21 6
19 22 7
19 23 6
19 24 5
19 25 8
19 26 7
19 27 8
19 28 4
19 29 7
19 30 7
19 31 3
19 32 7
19 33 8
19 34 7
19 35 7
19 36 3
19 37 4
19 38 5
19 39 5
19 40 7
19 41 8
19 42 6
19 43 5
19 44 5
19 45 6
19 46 6
19 47 5
20 21 5
20 22 6
20 23 4
20 24 2
20 25 6
20 26 4
20 27 6
20 28 5
20 29 6
20 30 7
20 31 5
20 32 7
20 33 4
20 34 2
20 35 2
20 36 5
20 37 4
20 38 7
20 39 5
20 40 4
20 41 9
20 42 5
20 43 4
20 44 3
20 45 7
20 46 6
20 47 6
21 22 5
21 23 4
21 24 4
21 25 5
21 26 7
21 27 9
21 28 6
21 29 4
21 30 3
21 31 3
21 32 7
21 33 6
21 34 6
21 35 5
21 36 5
21 37 6
21 38 5
21 39 3
21 40 7
21 41 7
21 42 2
21 43 5
21 44 2
21 45 6
21 46 5
21 47 4
22 23 4
22 24 7
22 25 7
22 26 4
22 27 6
22 28 4
22 29 5
22 30 5
22 31 5
22 32 7
22 33 6
22 34 4
22 35 6
22 36 7
22 37 7
22 38 7
22 39 4
22 40 8
22 41 3
22 42 3
22 43 2
22 44 5
22 45 5
22 46 7
22 47 6
23 24 4
23 25 3
23 26 4
23 27 6
23 28 2
23 29 3
23 30 7
23 31 5
23 32 7
23 33 6
23 34 2
23 35 5
23 36 4
23 37 6
23 38 6
23 39 3
23 40 8
23 41 6
23 42 5
23 43 2
23 44 2
23 45 5
23 46 7
23 47 3
24 25 5
24 26 6
24 27 8
24 28 5
24 29 6
24 30 7
24 31 3
24 32 6
24 33 5
24 34 4
24 35 4
24 36 7
24 37 5
24 38 5
24 39 5
24 40 6
24 41 7
24 42 4
24 43 5
24 44 2
24 45 7
24 46 7
24 47 5
25 26 6
25 27 9
25 28 5
25 29 6
25 30 6
25 31 8
25 32 7
25 33 5
25 34 5
25 35 6
25 36 5
25 37 7
25 38 7
25 39 6
25 40 6
25 41 7
25 42 6
25 43 5
25 44 3
25 45 8
25 46 8
25 47 6
26 27 6
26 28 6
26 29 5
26 30 5
26 31 8
26 32 7
26 33 6
26 34 6
26 35 2
26 36 5
26 37 7
26 38 7
26 39 7
26 40 8
26 41 7
26 42 5
26 43 2
26 44 5
26 45 9
26 46 7
26 47 7
27 28 5
27 29 5
27 30 7
27 31 9
27 32 7
27 33 8
27 34 8
27 35 8
27 36 8
27 37 7
27 38 8
27 39 9
27 40 10
27 41 9
27 42 7
27 43 8
27 44 7
27 45 8
27 46 5
27 47 6
28 29 5
28 30 5
28 31 5
28 32 7
28 33 5
28 34 4
28 35 7
28 36 6
28 37 4
28 38 6
28 39 5
28 40 8
28 41 5
28 42 4
28 43 4
28 44 4
28 45 4
28 46 6
28 47 2
29 30 5
29 31 7
29 32 6
29 33 3
29 34 4
29 35 5
29 36 7
29 37 6
29 38 7
29 39 6
29 40 7
29 41 8
29 42 2
29 43 5
29 44 5
29 45 6
29 46 7
29 47 6
30 31 4
30 32 4
30 33 5
30 34 5
30 35 6
30 36 7
30 37 4
30 38 5
30 39 4
30 40 8
30 41 6
30 42 3
30 43 7
30 44 5
30 45 6
30 46 2
30 47 4
31 32 5
31 33 5
31 34 5
31 35 6
31 36 4
31 37 6
31 38 2
31 39 2
31 40 7
31 41 7
31 42 5
31 43 7
31 44 5
31 45 4
31 46 6
31 47 6
32 33 3
32 34 7
32 35 8
32 36 7
32 37 5
32 38 7
32 39 6
32 40 9
32 41 9
32 42 6
32 43 7
32 44 5
32 45 8
32 46 5
32 47 8
33 34 4
33 35 6
33 36 8
33 37 8
33 38 6
33 39 3
33 40 8
33 41 8
33 42 5
33 43 4
33 44 7
33 45 7
33 46 7
33 47 5
34 35 4
34 36 5
34 37 6
34 38 7
34 39 5
34 40 6
34 41 7
34 42 5
34 43 4
34 44 4
34 45 5
34 46 7
34 47 4
35 36 7
35 37 6
35 38 6
35 39 6
35 40 6
35 41 9
35 42 3
35 43 4
35 44 3
35 45 8
35 46 7
35 47 7
36 37 6
36 38 2
36 39 5
36 40 8
36 41 7
36 42 7
36 43 6
36 44 6
36 45 4
36 46 7
36 47 5
37 38 4
37 39 6
37 40 7
37 41 6
37 42 5
37 43 5
37 44 4
37 45 3
37 46 2
37 47 5
38 39 3
38 40 6
38 41 5
38 42 6
38 43 8
38 44 7
38 45 2
38 46 5
38 47 4
39 40 6
39 41 7
39 42 5
39 43 5
39 44 5
39 45 5
39 46 6
39 47 6
40 41 7
40 42 5
40 43 8
40 44 7
40 45 4
40 46 8
40 47 6
41 42 6
41 43 5
41 44 6
41 45 3
41 46 8
41 47 3
42 43 5
42 44 4
42 45 6
42 46 5
42 47 4
43 44 3
43 45 7
43 46 7
43 47 5
44 45 7
44 46 6
44 47 5
45 46 5
45 47 2
46 47 6
